
  22   10
  10   10   10   10   10   10   10   10   10   10

   0   0   0   0   0   0   0   0   0   0   0   2 2 17 
   6   0   0   0   0   0   0   0   0   0  10   1 3 
   4   0   0  10   0   0   0   0   0   0   0   1 4 
   1   0   0   0   0   0   0   0   0  10   0   2 21 5 
   8   0   0   0   0   0   0   0   0   0  10   1 6 
   4   0   0  10   0   0   0   0   0   0   0   1 7 
   6   0   0   0   0   0   0   0   0   0  10   1 8 
   5   0   0   0   0   0   0   0  10   0   0   1 9 
   6   0   0   0  10   0   0   0   0   0   0   1 10 
   8   0   0  10   0   0   0   0   0   0   0   1 11 
   5   0  10   0   0   0   0   0   0   0   0   1 12 
   1   0   0   0   0   0   0   0   0  10   0   1 13 
   9   0   0   0   0   0   0  10   0   0   0   1 14 
   1   0   0   0   0   0   0   0  10   0   0   1 15 
   2   0   0  10   0   0   0   0   0   0   0   1 16 
   9  10   0   0   0   0   0   0   0   0   0   1 18 
   4  10   0   0   0   0   0   0   0   0   0   1 18 
   3   0   0   0   0  10   0   0   0   0   0   1 19 
   7   0  10   0   0   0   0   0   0   0   0   1 20 
   8  10   0   0   0   0   0   0   0   0   0   1 22
  10   0   0   0   0   0   0   0   0   0  10   1 22
   0   0   0   0   0   0   0   0   0   0   0   0 
